sifdecoder -A pc64.lnx.gfo -st   HS119

 Problem name: HS119

 Double precision version will be formed

 The objective function uses 16 nonlinear groups
 
 There are 8 linear equality constraints
 
 There are 16 variables bounded from below and above 
 
 
 File successfully decoded
 CUTEST: tools (double precision version) compiled successfully
 CUTEst: ipopt (double precision version) compiled successfully

******************************************************************************
This program contains Ipopt, a library for large-scale nonlinear optimization.
 Ipopt is released as open source code under the Eclipse Public License (EPL).
         For more information visit http://projects.coin-or.org/Ipopt
******************************************************************************

This is Ipopt version trunk, running with linear solver ma57.

Number of nonzeros in equality constraint Jacobian...:       53
Number of nonzeros in inequality constraint Jacobian.:        0
Number of nonzeros in Lagrangian Hessian.............:      136

Reallocating memory for MA57: lfact (1361)
Total number of variables............................:       16
                     variables with only lower bounds:        0
                variables with lower and upper bounds:       16
                     variables with only upper bounds:        0
Total number of equality constraints.................:        8
Total number of inequality constraints...............:        0
        inequality constraints with only lower bounds:        0
   inequality constraints with lower and upper bounds:        0
        inequality constraints with only upper bounds:        0

iter    objective    inf_pr   inf_du lg(mu)  ||d||  lg(rg) alpha_du alpha_pr  ls
   0  4.2658320e+04 1.35e+01 1.15e+01  -1.0 0.00e+00    -  0.00e+00 0.00e+00   0
   1  1.0726523e+04 2.53e+00 1.04e+02  -1.0 6.03e+00    -  8.28e-03 8.13e-01f  1
   2  8.9264088e+03 2.05e+00 8.45e+01  -1.0 1.43e+00    -  2.02e-01 1.88e-01f  1
   3  3.9556752e+03 7.64e-01 3.13e+01  -1.0 1.95e+00    -  3.54e-01 6.28e-01f  1
   4  1.4932895e+03 6.66e-16 5.14e+00  -1.0 1.38e+00    -  2.87e-01 1.00e+00f  1
   5  6.1846749e+02 1.33e-15 3.14e-01  -1.0 1.16e+00    -  8.04e-01 1.00e+00f  1
   6  3.6957742e+02 8.33e-16 2.18e-01  -1.7 6.71e-01    -  6.82e-01 1.00e+00f  1
   7  2.8463238e+02 4.72e-16 2.32e-02  -1.7 4.02e-01    -  1.00e+00 1.00e+00f  1
   8  2.5429908e+02 8.88e-16 8.63e-03  -2.5 2.91e-01    -  8.98e-01 1.00e+00f  1
   9  2.4599657e+02 4.44e-16 2.12e-03  -3.8 1.41e-01    -  1.00e+00 9.72e-01f  1
iter    objective    inf_pr   inf_du lg(mu)  ||d||  lg(rg) alpha_du alpha_pr  ls
  10  2.4512960e+02 3.26e-16 1.68e-04  -3.8 5.69e-02    -  1.00e+00 1.00e+00f  1
  11  2.4490296e+02 4.44e-16 1.85e-04  -5.7 2.36e-02    -  9.79e-01 9.98e-01f  1
  12  2.4490141e+02 6.66e-16 5.13e-07  -5.7 4.20e-03    -  1.00e+00 1.00e+00f  1
  13  2.4489970e+02 8.88e-16 1.49e-09  -8.6 2.17e-04    -  1.00e+00 1.00e+00f  1
  14  2.4489970e+02 5.55e-16 5.82e-15  -9.0 4.51e-07    -  1.00e+00 1.00e+00h  1

Number of Iterations....: 14

                                   (scaled)                 (unscaled)
Objective...............:   1.3132759344787746e+00    2.4489969626160189e+02
Dual infeasibility......:   5.8235546497854832e-15    1.0859764710919969e-12
Constraint violation....:   5.5511151231257827e-16    5.5511151231257827e-16
Complementarity.........:   9.0913035541432761e-10    1.6953462867766380e-07
Overall NLP error.......:   9.0913035541432761e-10    1.6953462867766380e-07


Number of objective function evaluations             = 15
Number of objective gradient evaluations             = 15
Number of equality constraint evaluations            = 15
Number of inequality constraint evaluations          = 0
Number of equality constraint Jacobian evaluations   = 15
Number of inequality constraint Jacobian evaluations = 0
Number of Lagrangian Hessian evaluations             = 14
Total CPU secs in IPOPT (w/o function evaluations)   =      0.017
Total CPU secs in NLP function evaluations           =      0.003

EXIT: Optimal Solution Found.

************************ CUTEst statistics ************************


 Package used            :  IPOPT
 Problem                 :  HS119     
 # variables             =              16
 # constraints           =               8
 # objective functions   =        0.3100000E+02
 # objective gradients   =        0.1600000E+02
 # objective Hessians    =        0.1500000E+02
 # Hessian-vector prdct  =        0.0000000E+00
 # constraints functions =        0.3200000E+02
 # constraints gradients =        0.1700000E+02
 # constraints Hessians  =        0.1500000E+02
 Exit code               =               0
 Final f                 =        2.4489969626160189D+02
 Bounds feasibility      =        8.2338862517173234D-09
 Set up time             =            0.02 seconds
 Solve time              =            0.09 seconds


******************************************************************

